NAME : higgs-002-integer.-60195499.tour
COMMENT : Length = -60195499
COMMENT : Found by LKH [Keld Helsgaun] Sun Jul  4 22:07:26 2021
TYPE : TOUR
DIMENSION : 28
TOUR_SECTION
1
21
3
17
12
15
8
11
18
7
19
2
16
13
20
9
14
24
10
4
22
25
5
6
23
27
28
26
-1
EOF
